0 0 0 0
0 1 0 0
0 2 2 0
0 3 0 0
0 4 0 2
0 5 1 2
0 6 1 7
0 7 0 5
0 8 0 7
0 9 0 2
0 10 0 7
0 11 2 13
0 12 2 1
0 13 0 9
0 14 2 12
0 15 2 12
0 16 2 18
0 17 2 3
0 18 0 17
0 19 0 13
0 20 0 21
0 21 1 11
0 22 0 24
0 23 0 30
0 24 0 22
0 25 0 30
0 26 0 17
0 27 0 22
0 28 2 27
0 29 2 26
0 30 0 34
0 31 0 36
